Problem:    
Rows:       256
Columns:    89 (72 integer, 72 binary)
Non-zeros:  960
Status:     INTEGER OPTIMAL
Objective:  value = 87.144926 (MINimum)

   No.   Row name        Activity     Lower bound   Upper bound
------ ------------    ------------- ------------- -------------
     1 r.5                   1087.14             0               
     2 r.6                  -934.093      -972.214               
     3 r.7                   87.1449             0               
     4 r.8                   69.0538      -986.391               
     5 r.9                   87.1449             0               
     6 r.10                  47.9553       -969.03               
     7 r.11                  1087.14             0               
     8 r.12                 -952.045      -986.618               
     9 r.13                  87.1449             0               
    10 r.14                  47.9553      -950.646               
    11 r.15                  1087.14             0               
    12 r.16                 -965.427      -981.452               
    13 r.17                  87.1449             0               
    14 r.18                 -967.845      -974.025               
    15 r.19                  1087.14             0               
    16 r.20                 -983.975      -990.155               
    17 r.21                  1087.14             0               
    18 r.22                 -965.174      -975.929               
    19 r.23                  87.1449             0               
    20 r.24                  50.9542      -989.655               
    21 r.25                  1087.14             0               
    22 r.26                 -998.762      -998.762               
    23 r.27                  87.1449             0               
    24 r.28                  10.6786      -991.963               
    25 r.29                  87.1449             0               
    26 r.30                  87.1449      -939.923               
    27 r.31                  1087.14             0               
    28 r.32                 -912.855      -980.409               
    29 r.33                  87.1449             0               
    30 r.34                  87.1449      -939.827               
    31 r.35                  1087.14             0               
    32 r.36                 -932.446      -980.401               
    33 r.37                        1             1             = 
    34 r.38                        1             1             = 
    35 r.39                        1             1             = 
    36 r.40                        1             1             = 
    37 r.41                        1             1             = 
    38 r.42                        1             1             = 
    39 r.43                        1             1             = 
    40 r.44                        1             1             = 
    41 r.45                     1001             2               
    42 r.46                    -1001         -1001               
    43 r.47                   1980.4       -969.03               
    44 r.48                     1001             2               
    45 r.49                    -1001         -1001               
    46 r.50                   1980.4      -986.618               
    47 r.51                     1001             2               
    48 r.52                    -1001         -1001               
    49 r.53                   1980.4      -950.646               
    50 r.54                     1001             2               
    51 r.55                    -1001         -1001               
    52 r.56                  1967.02      -981.452               
    53 r.57                     1001             2               
    54 r.58                    -1001         -1001               
    55 r.59                  964.601      -974.025               
    56 r.60                     1001             2               
    57 r.61                    -1001         -1001               
    58 r.62                  1948.47      -990.155               
    59 r.63                        2             2               
    60 r.64                       -2         -1001               
    61 r.65                 -32.7288      -975.929               
    62 r.66                     1000             2               
    63 r.67                    -1000         -1001               
    64 r.68                   1983.4      -989.655               
    65 r.69                 -940.274      -972.214               
    66 r.70                  62.8734      -986.391               
    67 r.71                 -940.274      -972.214               
    68 r.72                  62.8734      -986.391               
    69 r.73                  19.5906      -939.923               
    70 r.74                 -980.409      -980.409               
    71 r.75                  19.5906      -939.923               
    72 r.76                 -980.409      -980.409               
    73 r.77                     1001             2               
    74 r.78                    -1001         -1001               
    75 r.79                  2019.59      -939.827               
    76 r.80                     1001             2               
    77 r.81                    -1001         -1001               
    78 r.82                     2000      -980.401               
    79 r.83                     1001             2               
    80 r.84                    -1001         -1001               
    81 r.85                  2017.95       27.7862               
    82 r.86                     1001             2               
    83 r.87                    -1001         -1001               
    84 r.88                   2021.1       13.6092               
    85 r.89                     1000             2               
    86 r.90                    -1000         -1001               
    87 r.91                     2000      -950.646               
    88 r.92                        2             2               
    89 r.93                       -2         -1001               
    90 r.94                  -13.382      -981.452               
    91 r.95                     1000             2               
    92 r.96                    -1000         -1001               
    93 r.97                    984.2      -974.025               
    94 r.98                        2             2               
    95 r.99                       -2         -1001               
    96 r.100                -31.9303      -990.155               
    97 r.101                    1001             2               
    98 r.102                   -1001         -1001               
    99 r.103                 1986.87      -975.929               
   100 r.104                    1001             2               
   101 r.105                   -1001         -1001               
   102 r.106                    2003      -989.655               
   103 r.107                  41.775       -969.03               
   104 r.108                -958.225      -986.618               
   105 r.109                  41.775       -969.03               
   106 r.110                -958.225      -986.618               
   107 r.111                    1000             2               
   108 r.112                   -1000         -1001               
   109 r.113                 2039.19      -939.923               
   110 r.114                       2             2               
   111 r.115                      -2         -1001               
   112 r.116                 -960.81      -980.409               
   113 r.117                 39.1896      -939.827               
   114 r.118                -980.401      -980.401               
   115 r.119                 39.1896      -939.827               
   116 r.120                -980.401      -980.401               
   117 r.121                    1001             2               
   118 r.122                   -1001         -1001               
   119 r.123                 2017.95       27.7862               
   120 r.124                    1001             2               
   121 r.125                   -1001         -1001               
   122 r.126                 2034.48       13.6092               
   123 r.127                    1000             2               
   124 r.128                   -1000         -1001               
   125 r.129                    2000       30.9701               
   126 r.130                       2             2               
   127 r.131                      -2         -1001               
   128 r.132                  13.382        13.382               
   129 r.133                  1015.8      -950.646               
   130 r.134                 2.41797      -981.452               
   131 r.135                 31.9303      -950.646               
   132 r.136                -981.452      -981.452               
   133 r.137                    1001             2               
   134 r.138                   -1001         -1001               
   135 r.139                 1986.87      -975.929               
   136 r.140                    1001             2               
   137 r.141                   -1001         -1001               
   138 r.142                 2016.38      -989.655               
   139 r.143                  41.775      -950.646               
   140 r.144                -971.607      -981.452               
   141 r.145                  41.775      -950.646               
   142 r.146                -971.607      -981.452               
   143 r.147                    1000             2               
   144 r.148                   -1000         -1001               
   145 r.149                 2039.19      -939.923               
   146 r.150                       2             2               
   147 r.151                      -2         -1001               
   148 r.152                -947.428      -980.409               
   149 r.153                 39.1896      -939.827               
   150 r.154                -980.401      -980.401               
   151 r.155                 52.5716      -939.827               
   152 r.156                -967.019      -980.401               
   153 r.157                    1001             2               
   154 r.158                   -1001         -1001               
   155 r.159                 3033.75       27.7862               
   156 r.160                    1001             2               
   157 r.161                   -1001         -1001               
   158 r.162                 2053.03       13.6092               
   159 r.163                    1000             2               
   160 r.164                   -1000         -1001               
   161 r.165                  3015.8       30.9701               
   162 r.166                       2             2               
   163 r.167                      -2         -1001               
   164 r.168                 31.9303        13.382               
   165 r.169                    1001             2               
   166 r.170                   -1001         -1001               
   167 r.171                 3002.67      -975.929               
   168 r.172                    1001             2               
   169 r.173                   -1001         -1001               
   170 r.174                 2034.93      -989.655               
   171 r.175                -974.025      -974.025               
   172 r.176                -990.155      -990.155               
   173 r.177                -974.025      -974.025               
   174 r.178                -990.155      -990.155               
   175 r.179                    1000             2               
   176 r.180                   -1000         -1001               
   177 r.181                 3054.99      -939.923               
   178 r.182                       2             2               
   179 r.183                      -2         -1001               
   180 r.184                 -928.88      -980.409               
   181 r.185                 1054.99      -939.827               
   182 r.186                  35.399      -980.401               
   183 r.187                 71.1199      -939.827               
   184 r.188                -948.471      -980.401               
   185 r.189                       2             2               
   186 r.190                      -2         -1001               
   187 r.191                 27.7862       27.7862               
   188 r.192                    1000             2               
   189 r.193                   -1000         -1001               
   190 r.194                  2021.1       13.6092               
   191 r.195                    1001             2               
   192 r.196                   -1001         -1001               
   193 r.197                 2009.83       30.9701               
   194 r.198                    1001             2               
   195 r.199                   -1001         -1001               
   196 r.200                    2000        13.382               
   197 r.201                    1001             2               
   198 r.202                   -1001         -1001               
   199 r.203                 2009.83       49.3542               
   200 r.204                    1001             2               
   201 r.205                   -1001         -1001               
   202 r.206                 1986.62       18.5483               
   203 r.207                    1001             2               
   204 r.208                   -1001         -1001               
   205 r.209                 994.035        25.975               
   206 r.210                    1001             2               
   207 r.211                   -1001         -1001               
   208 r.212                 1968.07        9.8447               
   209 r.213                -971.355      -975.929               
   210 r.214                 44.7738      -989.655               
   211 r.215                -971.355      -975.929               
   212 r.216                 44.7738      -989.655               
   213 r.217                 49.0243      -939.923               
   214 r.218                -950.976      -980.409               
   215 r.219                 39.1896      -939.923               
   216 r.220                 -960.81      -980.409               
   217 r.221                 49.0243      -939.827               
   218 r.222                -970.566      -980.401               
   219 r.223                 39.1896      -939.827               
   220 r.224                -980.401      -980.401               
   221 r.225                    1000             2               
   222 r.226                   -1000         -1001               
   223 r.227                 1960.81       30.9701               
   224 r.228                       2             2               
   225 r.229                      -2         -1001               
   226 r.230                  960.81        13.382               
   227 r.231                    1000             2               
   228 r.232                   -1000         -1001               
   229 r.233                 1960.81       49.3542               
   230 r.234                       2             2               
   231 r.235                      -2         -1001               
   232 r.236                 947.428       18.5483               
   233 r.237                    1000             2               
   234 r.238                   -1000         -1001               
   235 r.239                  945.01        25.975               
   236 r.240                       2             2               
   237 r.241                      -2         -1001               
   238 r.242                  928.88        9.8447               
   239 r.243                    1000             2               
   240 r.244                   -1000         -1001               
   241 r.245                    2000      -939.827               
   242 r.246                       2             2               
   243 r.247                      -2         -1001               
   244 r.248                -19.5906      -980.401               
   245 r.249                    1001             2               
   246 r.250                   -1001         -1001               
   247 r.251                 1978.76       27.7862               
   248 r.252                    1001             2               
   249 r.253                   -1001         -1001               
   250 r.254                  2001.5       13.6092               
   251 r.255                    1000             2               
   252 r.256                   -1000         -1001               
   253 r.257                    2000       60.0775               
   254 r.258                       2             2               
   255 r.259                      -2         -1001               
   256 r.260                 19.5906       19.5906               

   No. Column name       Activity     Lower bound   Upper bound
------ ------------    ------------- ------------- -------------
     1 tt                    87.1449             0               
     2 s_1_1        *              1             0             1 
     3 t_1_1                 19.5906             0               
     4 s_1_7        *              0             0             1 
     5 s_2_1        *              0             0             1 
     6 t_2_1                 19.5906             0               
     7 s_2_7        *              1             0             1 
     8 s_1_2        *              0             0             1 
     9 t_1_2                 39.1896             0               
    10 s_1_8        *              0             0             1 
    11 s_2_2        *              1             0             1 
    12 t_2_2                 39.1896             0               
    13 s_2_8        *              1             0             1 
    14 s_1_3        *              0             0             1 
    15 t_1_3                 39.1896             0               
    16 s_2_3        *              1             0             1 
    17 t_2_3                 52.5716             0               
    18 s_1_4        *              0             0             1 
    19 t_1_4                 1054.99             0               
    20 s_2_4        *              1             0             1 
    21 t_2_4                 71.1199             0               
    22 s_1_5        *              1             0             1 
    23 t_1_5                 49.0243             0               
    24 s_2_5        *              0             0             1 
    25 t_2_5                 39.1896             0               
    26 s_1_6        *              1             0             1 
    27 t_1_6                 80.9646             0               
    28 s_2_6        *              0             0             1 
    29 t_2_6                 80.9646             0               
    30 t_1_7                       0             0               
    31 t_2_7                       0             0               
    32 t_1_8                       0             0               
    33 t_2_8                 19.5906             0               
    34 r_1_1_2      *              1             0             1 
    35 u_1_1_2      *              0             0             1 
    36 r_2_1_2      *              1             0             1 
    37 u_2_1_2      *              0             0             1 
    38 r_1_1_3      *              1             0             1 
    39 u_1_1_3      *              0             0             1 
    40 r_2_1_3      *              1             0             1 
    41 u_2_1_3      *              0             0             1 
    42 r_1_1_4      *              1             0             1 
    43 u_1_1_4      *              0             0             1 
    44 r_2_1_4      *              1             0             1 
    45 u_2_1_4      *              0             0             1 
    46 r_1_1_5      *              0             0             1 
    47 u_1_1_5      *              0             0             1 
    48 r_2_1_5      *              1             0             1 
    49 u_2_1_5      *              0             0             1 
    50 r_1_1_8      *              1             0             1 
    51 u_1_1_8      *              0             0             1 
    52 r_2_1_8      *              1             0             1 
    53 u_2_1_8      *              0             0             1 
    54 r_1_2_3      *              1             0             1 
    55 u_1_2_3      *              0             0             1 
    56 r_2_2_3      *              0             0             1 
    57 u_2_2_3      *              0             0             1 
    58 r_1_2_4      *              1             0             1 
    59 u_1_2_4      *              0             0             1 
    60 r_2_2_4      *              0             0             1 
    61 u_2_2_4      *              0             0             1 
    62 r_1_2_5      *              1             0             1 
    63 u_1_2_5      *              0             0             1 
    64 r_2_2_5      *              1             0             1 
    65 u_2_2_5      *              0             0             1 
    66 r_1_2_7      *              1             0             1 
    67 u_1_2_7      *              0             0             1 
    68 r_2_2_7      *              0             0             1 
    69 u_2_2_7      *              1             0             1 
    70 r_1_3_5      *              1             0             1 
    71 u_1_3_5      *              0             0             1 
    72 r_2_3_5      *              1             0             1 
    73 u_2_3_5      *              0             0             1 
    74 r_1_3_7      *              1             0             1 
    75 u_1_3_7      *              0             0             1 
    76 r_2_3_7      *              0             0             1 
    77 u_2_3_7      *              1             0             1 
    78 r_1_4_5      *              1             0             1 
    79 u_1_4_5      *              0             0             1 
    80 r_2_4_5      *              1             0             1 
    81 u_2_4_5      *              0             0             1 
    82 r_1_4_7      *              1             0             1 
    83 u_1_4_7      *              0             0             1 
    84 r_2_4_7      *              0             0             1 
    85 u_2_4_7      *              1             0             1 
    86 r_1_7_8      *              1             0             1 
    87 u_1_7_8      *              0             0             1 
    88 r_2_7_8      *              0             0             1 
    89 u_2_7_8      *              0             0             1 

Integer feasibility conditions:

KKT.PE: max.abs.err = 4.55e-13 on row 167
        max.rel.err = 1.09e-16 on row 104
        High quality

KKT.PB: max.abs.err = 2.27e-13 on row 22
        max.rel.err = 2.33e-16 on row 173
        High quality

End of output
